data;

param num_top:=3;

#nodes and edges of the physical network
param n := 10;

set E := (1,2) (1,3) (1,7) (2,4) (2,7) (3,5) (4,8) (5,6) (5,7) (6,7) (6,9) (7,8) (7,9) (8,10) (9,10) ;

#nodes and edges of the virtual networks
set Nl[1] := 8 5 6 9 1 ;
set Nl[2] := 5 1 9 6 7 ;
set Nl[3] := 3 4 7 8 9 ;

set El[1] := (5,8) (5,6) (6,9) (1,9) (1,8) (5,9) (6,8) (1,5) (8,9) (1,6) ;
set El[2] := (1,5) (1,9) (6,9) (6,7) (5,7) (1,7) (7,9) (1,6) (5,6) (5,9) ;
set El[3] := (3,4) (4,7) (7,8) (8,9) (3,9) (7,9) (3,8) (4,8) (4,9) (3,7) ;
